p cnf 100 500
1 -100 -88 0
1 -100 -19 0
1 -100 -1 0
1 -100 6 0
1 -100 92 0
1 -99 -77 0
1 -99 -47 0
1 -99 -26 0
1 -99 29 0
1 -99 62 0
1 -98 -30 0
1 -98 6 0
1 -98 12 0
1 -98 29 0
1 -98 48 0
1 -97 -78 0
1 -97 -76 0
1 -97 68 0
1 -97 83 0
1 -97 84 0
1 -96 -48 0
1 -96 -24 0
1 -96 56 0
1 -96 65 0
1 -96 76 0
1 -95 -74 0
1 -95 -47 0
1 -95 15 0
1 -95 24 0
1 -95 82 0
1 -94 -87 0
1 -94 -80 0
1 -94 -7 0
1 -94 -5 0
1 -94 71 0
1 -93 -78 0
1 -93 -10 0
1 -93 -1 0
1 -93 7 0
1 -93 11 0
1 -92 -89 0
1 -92 -84 0
1 -92 -27 0
1 -92 58 0
1 -92 82 0
1 -91 -29 0
1 -91 -26 0
1 -91 38 0
1 -91 68 0
1 -91 77 0
1 -90 -25 0
1 -90 42 0
1 -90 73 0
1 -90 79 0
1 -90 86 0
1 -89 -79 0
1 -89 -35 0
1 -89 61 0
1 -89 94 0
1 -88 -72 0
1 -88 -31 0
1 -88 64 0
1 -88 66 0
1 -87 -81 0
1 -87 -18 0
1 -87 10 0
1 -87 83 0
1 -86 -50 0
1 -86 -27 0
1 -86 11 0
1 -86 71 0
1 -86 88 0
1 -85 -62 0
1 -85 -48 0
1 -85 29 0
1 -85 31 0
1 -85 59 0
1 -84 -44 0
1 -84 -14 0
1 -84 -6 0
1 -84 26 0
1 -83 -31 0
1 -83 45 0
1 -83 62 0
1 -83 65 0
1 -83 71 0
1 -82 -55 0
1 -82 -46 0
1 -82 -13 0
1 -82 11 0
1 -82 58 0
1 -81 -62 0
1 -81 -46 0
1 -81 -22 0
1 -81 19 0
1 -80 -12 0
1 -80 -6 0
1 -80 1 0
1 -80 76 0
1 -79 -15 0
1 -79 28 0
1 -79 97 0
1 -79 98 0
1 -78 -59 0
1 -78 -16 0
1 -78 100 0
1 -77 -73 0
1 -77 63 0
1 -77 65 0
1 -77 75 0
1 -76 -63 0
1 -76 -54 0
1 -76 -53 0
1 -76 -15 0
1 -75 -60 0
1 -75 -11 0
1 -75 7 0
1 -75 13 0
1 -75 22 0
1 -74 -57 0
1 -74 -2 0
1 -74 2 0
1 -74 66 0
1 -73 -29 0
1 -73 -9 0
1 -73 31 0
1 -73 34 0
1 -72 -46 0
1 -72 -7 0
1 -72 33 0
1 -72 34 0
1 -71 -20 0
1 -71 -12 0
1 -71 24 0
1 -71 81 0
1 -71 98 0
1 -70 -44 0
1 -70 -24 0
1 -70 2 0
1 -70 28 0
1 -70 85 0
1 -69 -10 0
1 -69 10 0
1 -69 51 0
1 -69 67 0
1 -69 87 0
1 -68 -58 0
1 -68 -37 0
1 -68 42 0
1 -68 43 0
1 -68 72 0
1 -67 -54 0
1 -67 -49 0
1 -67 4 0
1 -67 27 0
1 -67 43 0
1 -66 -41 0
1 -66 -2 0
1 -66 16 0
1 -66 50 0
1 -66 78 0
1 -65 -26 0
1 -65 2 0
1 -65 8 0
1 -65 37 0
1 -65 51 0
1 -64 -56 0
1 -64 -35 0
1 -64 30 0
1 -64 45 0
1 -64 66 0
1 -63 -40 0
1 -63 -34 0
1 -63 10 0
1 -63 30 0
1 -62 3 0
1 -62 59 0
1 -62 74 0
1 -61 -57 0
1 -61 -34 0
1 -61 -30 0
1 -61 -9 0
1 -61 21 0
1 -60 -28 0
1 -60 47 0
1 -60 58 0
1 -60 82 0
1 -59 3 0
1 -59 37 0
1 -59 45 0
1 -59 82 0
1 -58 -19 0
1 -58 30 0
1 -58 31 0
1 -58 51 0
1 -57 -20 0
1 -57 -3 0
1 -57 56 0
1 -56 6 0
1 -56 13 0
1 -56 65 0
1 -56 83 0
1 -55 -51 0
1 -55 -23 0
1 -55 -21 0
1 -55 5 0
1 -54 -34 0
1 -54 7 0
1 -54 92 0
1 -53 -38 0
1 -53 -19 0
1 -53 70 0
1 -53 89 0
1 -52 -37 0
1 -52 -33 0
1 -52 -17 0
1 -52 79 0
1 -52 80 0
1 -51 -37 0
1 -51 -36 0
1 -51 -24 0
1 -51 98 0
1 -50 -3 0
1 -50 32 0
1 -50 37 0
1 -50 60 0
1 -49 -45 0
1 -49 18 0
1 -49 35 0
1 -49 79 0
1 -48 -11 0
1 -48 8 0
1 -48 62 0
1 -47 24 0
1 -47 64 0
1 -47 72 0
1 -46 -39 0
1 -46 6 0
1 -45 -17 0
1 -45 14 0
1 -45 43 0
1 -45 80 0
1 -44 38 0
1 -44 42 0
1 -44 85 0
1 -43 -36 0
1 -43 -15 0
1 -43 49 0
1 -43 61 0
1 -43 81 0
1 -42 5 0
1 -42 55 0
1 -42 57 0
1 -42 72 0
1 -42 100 0
1 -41 46 0
1 -41 52 0
1 -41 53 0
1 -41 82 0
1 -40 -38 0
1 -40 44 0
1 -40 52 0
1 -40 61 0
1 -39 -9 0
1 -39 -1 0
1 -39 90 0
1 -39 100 0
1 -38 -22 0
1 -38 14 0
1 -38 41 0
1 -37 -21 0
1 -37 43 0
1 -36 -4 0
1 -36 45 0
1 -36 69 0
1 -35 -33 0
1 -35 3 0
1 -35 100 0
1 -34 80 0
1 -34 90 0
1 -33 -31 0
1 -33 87 0
1 -33 97 0
1 -32 -28 0
1 -32 -20 0
1 -32 79 0
1 -32 81 0
1 -32 95 0
1 -31 14 0
1 -31 29 0
1 -30 14 0
1 -30 35 0
1 -30 71 0
1 -29 -16 0
1 -29 -3 0
1 -29 74 0
1 -28 33 0
1 -28 55 0
1 -28 65 0
1 -27 20 0
1 -27 64 0
1 -27 67 0
1 -26 49 0
1 -26 63 0
1 -25 18 0
1 -25 47 0
1 -25 77 0
1 -25 94 0
1 -24 17 0
1 -24 90 0
1 -23 -18 0
1 -23 13 0
1 -23 39 0
1 -23 69 0
1 -22 -13 0
1 -22 -12 0
1 -22 76 0
1 -21 23 0
1 -21 35 0
1 -21 70 0
1 -20 55 0
1 -20 83 0
1 -19 1 0
1 -19 89 0
1 -18 17 0
1 -18 26 0
1 -18 40 0
1 -17 18 0
1 -17 57 0
1 -17 66 0
1 -16 -5 0
1 -16 10 0
1 -16 73 0
1 -15 -6 0
1 -15 54 0
1 -14 -13 0
1 -14 -5 0
1 -14 19 0
1 -14 24 0
1 -13 -4 0
1 -13 5 0
1 -12 84 0
1 -12 92 0
1 -11 1 0
1 -11 48 0
1 -11 73 0
1 -10 20 0
1 -10 61 0
1 -10 67 0
1 -9 22 0
1 -9 97 0
1 -8 3 0
1 -8 23 0
1 -8 28 0
1 -8 68 0
1 -8 83 0
1 -7 33 0
1 -7 74 0
1 -7 75 0
1 -6 -2 0
1 -6 40 0
1 -5 17 0
1 -5 55 0
1 -4 7 0
1 -4 45 0
1 -4 56 0
1 -3 4 0
1 -3 32 0
1 -2 44 0
1 -2 63 0
1 -1 35 0
1 -1 96 0
1 1 38 0
1 1 60 0
1 2 53 0
1 2 88 0
1 3 57 0
1 4 51 0
1 4 87 0
1 4 93 0
1 5 16 0
1 5 22 0
1 6 50 0
1 7 91 0
1 8 60 0
1 8 75 0
1 8 95 0
1 9 18 0
1 9 46 0
1 9 64 0
1 9 91 0
1 9 92 0
1 10 41 0
1 11 13 0
1 11 89 0
1 12 22 0
1 12 34 0
1 12 40 0
1 12 78 0
1 13 30 0
1 14 16 0
1 15 41 0
1 15 69 0
1 15 81 0
1 15 89 0
1 16 21 0
1 16 79 0
1 17 58 0
1 17 74 0
1 18 85 0
1 19 37 0
1 19 49 0
1 19 66 0
1 20 51 0
1 20 94 0
1 20 99 0
1 21 38 0
1 21 44 0
1 21 64 0
1 22 30 0
1 23 29 0
1 23 54 0
1 23 98 0
1 24 36 0
1 25 27 0
1 25 48 0
1 25 53 0
1 25 75 0
1 25 98 0
1 26 47 0
1 26 53 0
1 26 80 0
1 27 61 0
1 27 89 0
1 27 92 0
1 28 34 0
1 28 41 0
1 31 33 0
1 31 84 0
1 32 60 0
1 32 80 0
1 32 81 0
1 33 36 0
1 34 87 0
1 35 59 0
1 36 44 0
1 36 59 0
1 36 63 0
1 37 62 0
1 38 70 0
1 39 42 0
1 39 67 0
1 39 91 0
1 39 97 0
1 40 77 0
1 40 95 0
1 41 91 0
1 42 96 0
1 43 93 0
1 44 96 0
1 46 55 0
1 46 56 0
1 46 58 0
1 47 62 0
1 47 99 0
1 48 86 0
1 48 88 0
1 49 50 0
1 49 69 0
1 50 59 0
1 50 99 0
1 52 78 0
1 52 84 0
1 52 88 0
1 53 100 0
1 54 63 0
1 54 85 0
1 54 95 0
1 56 71 0
1 57 74 0
1 57 99 0
1 60 68 0
1 67 73 0
1 68 97 0
1 69 77 0
1 70 78 0
1 70 94 0
1 72 87 0
1 72 96 0
1 73 84 0
1 75 93 0
1 76 86 0
1 76 93 0
1 77 86 0
1 78 85 0
1 86 93 0
1 88 90 0
1 90 95 0
1 91 96 0
1 94 99 0
